Route #1: 32 58 40 8 65 5
Route #2: 9 36 21 14 39 29 3 15 60 4 33
Route #3: 24 12 49 27 42
Route #4: 6 2 10 26 46 63 25
Route #5: 50 28 62 16 61 47
Route #6: 1 7 30 44 64 59 48 37
Route #7: 55 11 19 35 38 57 17 41
Route #8: 45 31 13 56 22 43 34 51
Route #9: 20 23 18 54 53 52
Cost 1323
Time 0.107794
